logs/miss/feas/miss-06-15-0.sol
# Objective value = 60
x0,1_6 0
x0,1_7 0
x0,1_8 0
x0,1_15 0
x0,1_16 0
x0,1_21 0
x0,2_6 0
x0,2_7 0
x0,2_8 1
x0,2_15 0
x0,2_16 0
x0,2_21 0
x0,3_6 0
x0,3_7 0
x0,3_8 0
x0,3_15 0
x0,3_16 0
x0,3_21 0
x0,4_6 0
x0,4_7 0
x0,4_8 0
x0,4_15 0
x0,4_16 1
x0,4_21 0
x0,5_6 0
x0,5_7 0
x0,5_8 0
x0,5_15 0
x0,5_16 0
x0,5_21 0
x1,2_6 0
x1,2_7 0
x1,2_8 0
x1,2_15 0
x1,2_16 0
x1,2_21 0
x1,3_6 1
x1,3_7 0
x1,3_8 0
x1,3_15 0
x1,3_16 0
x1,3_21 0
x1,4_6 0
x1,4_7 0
x1,4_8 0
x1,4_15 0
x1,4_16 0
x1,4_21 0
x1,5_6 0
x1,5_7 0
x1,5_8 0
x1,5_15 0
x1,5_16 0
x1,5_21 1
x2,3_6 0
x2,3_7 0
x2,3_8 0
x2,3_15 0
x2,3_16 0
x2,3_21 0
x2,4_6 0
x2,4_7 0
x2,4_8 1
x2,4_15 0
x2,4_16 0
x2,4_21 0
x2,5_6 0
x2,5_7 0
x2,5_8 0
x2,5_15 0
x2,5_16 1
x2,5_21 0
x3,4_6 0
x3,4_7 1
x3,4_8 0
x3,4_15 0
x3,4_16 0
x3,4_21 0
x3,5_6 0
x3,5_7 0
x3,5_8 0
x3,5_15 1
x3,5_16 0
x3,5_21 0
x4,5_6 0
x4,5_7 0
x4,5_8 1
x4,5_15 0
x4,5_16 0
x4,5_21 0
p0 0
p1 3
p2 8
p3 9
p4 16
p5 24
